
  22   10
  10   10   10   10   10   10   10   10   10   10

   0   0   0   0   0   0   0   0   0   0   0   2 2 8 
   5   0   0   0  10   0   0   0   0   0   0   1 3 
   3  10   0   0   0   0   0   0   0   0   0   1 4 
   8   0  10   0   0   0   0   0   0   0   0   1 5 
   5   0  10   0   0   0   0   0   0   0   0   1 6 
   5   0   0   0   0   0   0  10   0   0   0   1 7 
   6   0   0   0   0   0   0   0   0  10   0   1 9 
  10   0   0   0   0   0   0   0   0   0  10   1 9 
   7  10   0   0   0   0   0   0   0   0   0   1 10 
   8   0   0  10   0   0   0   0   0   0   0   1 11 
   2   0   0   0   0   0   0  10   0   0   0   1 12 
   8   0   0   0   0   0   0  10   0   0   0   1 13 
   1   0   0   0   0   0   0  10   0   0   0   1 14 
   6  10   0   0   0   0   0   0   0   0   0   1 15 
   1   0   0   0   0   0   0   0   0  10   0   2 21 16 
   2   0   0   0   0   0   0  10   0   0   0   1 17 
   3  10   0   0   0   0   0   0   0   0   0   1 18 
   8   0  10   0   0   0   0   0   0   0   0   1 19 
   2   0   0  10   0   0   0   0   0   0   0   1 20 
   3   0   0   0   0  10   0   0   0   0   0   1 22
   7   0   0   0   0   0   0   0   0  10   0   1 22
   0   0   0   0   0   0   0   0   0   0   0   0 
